Ti8 Mn4 Co2 Ni2
1.0
   0.0000000000000000   -2.8530129488580545    0.0000000000000000
  -5.7060258977161089    0.0000000000000000   -6.5854442886321323
   5.7060258977161089    0.0000000000000000   -6.5854442886321323
Ti Mn Co Ni
8 4 2 2
direct
   0.0000000000000000    0.2500000000000000    0.7500000000000000 Ti
   0.0000000000000000    0.7500000000000000    0.2500000000000000 Ti
   0.0000000000000000    0.0000000000000000    0.0000000000000000 Ti
   0.0000000000000000    0.5000000000000000    0.5000000000000000 Ti
   0.0000000000000000    0.2500000000000000    0.2500000000000000 Ti
   0.0000000000000000    0.7500000000000000    0.7500000000000000 Ti
   0.0000000000000000    0.5000000000000000    0.0000000000000000 Ti
   0.0000000000000000    0.0000000000000000    0.5000000000000000 Ti
   0.5000000000000000    0.5000000000000000    0.7500000000000000 Mn,spin=3.0
   0.5000000000000000    0.0000000000000000    0.2500000000000000 Mn,spin=-3.0
   0.5000000000000000    0.2500000000000000    0.0000000000000000 Mn,spin=3.0
   0.5000000000000000    0.7500000000000000    0.5000000000000000 Mn,spin=-3.0
   0.5000000000000000    0.5000000000000000    0.2500000000000000 Co,spin=3.0
   0.5000000000000000    0.9999999999999999    0.7499999999999999 Co,spin=-3.0
   0.5000000000000000    0.7500000000000000    0.0000000000000000 Ni
   0.5000000000000000    0.2500000000000000    0.4999999999999999 Ni
