ALGO = Normal
EDIFF = 1e-06
EDIFFG = 0.001
IBRION = 2
ISIF = 3
ISMEAR = 1
ISPIN = 2
KPAR = 1
LCHARG = True
LMAXMIX = 4
LORBIT = 11
LREAL = False
LWAVE = False
MAGMOM = 1*3.0 1*-3.0 1*3.0 1*-3.0 1*3.0 1*-3.0
NCORE = 12
NELM = 100
NSW = 100
PREC = Singlen
SIGMA = 0.2
