pymatgen with grid density = 5000 / number of atoms
0
Monkhorst
6 6 6
