L21
6.0
   1.000000     0.000000     0.000000
   0.000000     1.000000     0.000000
   0.000000     0.000000     1.000000
Fe Rh Al
8 4 4
Direct
       0.25    0.25    0.25
       0.25    0.75    0.25
       0.75    0.25    0.25
       0.75    0.75    0.25
       0.25    0.25    0.75
       0.75    0.25    0.75 
       0.25    0.75    0.75
       0.75    0.75    0.75
       0.5     0.0     0.0
       0.0     0.5     0.0 
       0.0     0.0     0.5
       0.5     0.5     0.5
       0.5     0.5     0.0
       0.0     0.0     0.0
       0.5     0.0     0.5
       0.0     0.5     0.5
